\* Problem: Unknown *\

Maximize
 obj: + xp_0_0 + xp_0_1 + xp_0_2 + xp_0_3 + xp_0_4 + xp_0_5 + xp_0_6
 + xp_1_0 + xp_1_1 + xp_2_0 + xp_2_1 + xp_2_2 + xp_2_3 + xp_2_4 + xp_3_0
 + xp_3_1 + xp_4_0 + xp_5_0 + xp_5_1 + xp_5_2 + xp_6_0 + xp_6_1 + xp_6_2
 + xp_6_3 + xp_7_0 + xp_7_1 + xp_8_0 + xp_8_1 + xp_9_0 + xp_10_0
 + xp_10_1 + xp_11_0 + xp_11_1 + xp_11_2 + xp_11_3 + xp_12_0 + xp_13_0
 + xp_13_1 + xp_14_0 + xp_14_1 + xp_15_0 + xp_16_0 + xp_16_1 + xp_17_0
 + xp_17_1 + xp_17_2 + xp_17_3 + xp_17_4 + xp_17_5 + xp_17_6 + xp_18_0
 + xp_18_1 + xp_18_2 + xp_18_3 + xp_18_4 + xp_19_0 + xp_19_1 + xp_19_2
 + xp_19_3 + xp_19_4 + xp_19_5 + xp_19_6 + xp_20_0 + xp_20_1 + xp_20_2
 + xp_20_3 + xp_21_0 + xp_21_1 + xp_21_2 + xp_21_3 + xp_21_4 + xp_22_0
 + xp_22_1 + xp_22_2 + xp_22_3 + xp_22_4 + xp_23_0 + xp_23_1 + xp_23_2
 + xp_23_3 + xp_23_4 + xp_23_5

Subject To
 r_1: 0 xp_0_0 <= 25.8704453441296
 r_2: + xp_23_5 + xp_22_4 + xp_18_3 + xp_18_2 + xp_5_2 + xp_2_3
 <= 25.6427184466019
 r_3: + xp_23_2 + xp_21_1 + xp_18_4 + xp_17_4 + xp_6_3
 <= 26.1838588989845
 r_4: + xp_17_1 + xp_15_0 <= 27.1553784860558
 r_5: + xp_18_0 <= 25.3650893136948
 r_6: + xp_18_1 <= 26.0136785539814
 r_7: + xp_20_3 <= 25.8704453441296
 r_8: + xp_23_3 + xp_22_2 + xp_17_6 + xp_11_2 + xp_5_1 + xp_2_2
 <= 25.6427184466019
 r_9: + xp_23_4 + xp_11_1 + xp_6_1 + xp_3_1 <= 26.1838588989845
 r_10: + xp_17_3 + xp_3_0 <= 27.1553784860558
 r_11: + xp_18_1 + xp_11_3 <= 25.3650893136948
 r_12: + xp_11_0 <= 26.0136785539814
 r_13: 0 xp_0_0 <= 27.3778920308483
 r_14: + xp_21_2 + xp_19_6 + xp_14_0 + xp_0_6 + xp_0_2
 <= 25.6427184466019
 r_15: + xp_21_0 + xp_19_3 <= 26.1838588989845
 r_16: + xp_22_1 + xp_21_4 + xp_19_4 + xp_0_4 + xp_0_3 + xp_0_1
 <= 26.7924528301887
 r_17: + xp_0_0 <= 25.3650893136948
 r_18: + xp_21_1 + xp_4_0 <= 25.8704453441296
 r_19: + xp_19_0 <= 25.8704453441296
 r_20: + xp_21_3 + xp_19_5 + xp_19_2 + xp_19_1 + xp_14_1 + xp_0_5
 <= 27.3778920308483
 r_21: + xp_20_1 <= 25.6427184466019
 r_22: + xp_21_2 + xp_7_1 <= 26.1838588989845
 r_23: + xp_23_5 + xp_22_4 + xp_22_3 + xp_22_2 <= 26.7924528301887
 r_24: + xp_23_3 + xp_18_3 + xp_17_6 + xp_6_2 + xp_0_6
 <= 26.0949464012251
 r_25: 0 xp_0_0 <= 27.3778920308483
 r_26: + xp_18_2 + xp_0_5 + xp_0_2 <= 25.3650893136948
 r_27: + xp_11_2 <= 25.6427184466019
 r_28: + xp_19_6 + xp_19_2 + xp_10_1 <= 25.6427184466019
 r_29: + xp_20_2 <= 26.1838588989845
 r_30: + xp_2_0 <= 26.1838588989845
 r_31: + xp_23_4 + xp_23_2 + xp_18_4 + xp_17_4 + xp_6_3 + xp_6_1
 + xp_3_1 + xp_2_4 <= 26.0949464012251
 r_32: + xp_2_1 <= 27.3778920308483
 r_33: + xp_11_1 + xp_2_3 <= 26.1838588989845
 r_34: + xp_19_5 + xp_19_3 + xp_2_2 <= 26.1838588989845
 r_35: 0 xp_0_0 <= 26.7924528301887
 r_36: + xp_9_0 <= 26.7924528301887
 r_37: + xp_21_4 + xp_13_1 + xp_8_1 + xp_0_3 <= 26.0949464012251
 r_38: + xp_23_5 + xp_1_1 <= 28.3056478405316
 r_39: + xp_19_4 + xp_17_2 + xp_0_4 <= 27.1553784860558
 r_40: + xp_0_1 <= 25.3650893136948
 r_41: + xp_12_0 + xp_2_4 <= 26.0949464012251
 r_42: + xp_21_4 <= 26.0949464012251
 r_43: + xp_16_0 <= 26.0949464012251
 r_44: + xp_23_4 + xp_23_3 + xp_23_2 + xp_23_1 + xp_16_1
 <= 28.3056478405316
 r_45: + xp_17_6 + xp_17_4 + xp_3_1 <= 27.1553784860558
 r_46: + xp_18_4 + xp_18_3 + xp_0_6 + xp_0_3 <= 25.3650893136948
 r_47: + xp_16_1 + xp_13_1 <= 28.3056478405316
 r_48: + xp_13_0 <= 28.3056478405316
 r_49: + xp_17_5 <= 27.1553784860558
 r_50: 0 xp_0_0 <= 25.3650893136948
 r_51: + xp_8_1 + xp_1_1 <= 27.1553784860558
 r_52: + xp_8_0 <= 27.1553784860558
 r_53: + xp_1_0 <= 27.1553784860558
 r_54: + xp_0_4 <= 25.3650893136948
 r_55: 0 xp_0_0 <= 27.1553784860558
 r_56: + xp_19_4 <= 27.1553784860558
 r_57: + xp_22_1 <= 25.3650893136948
 r_58: + xp_22_3 + xp_6_2 + xp_5_0 <= 25.3650893136948
 r_59: + xp_22_0 + xp_17_2 <= 25.3650893136948
 r_60: + xp_23_1 + xp_6_0 <= 25.3650893136948
 r_61: + xp_23_0 + xp_17_5 <= 25.3650893136948
 r_62: + xp_17_0 <= 25.3650893136948
 r_63: + xp_23_5 + xp_23_2 + xp_22_4 + xp_17_4 + xp_17_1 + xp_11_3
 + xp_6_3 + xp_5_2 <= 25.3650893136948
 r_64: + xp_23_4 + xp_23_3 + xp_22_2 + xp_17_6 + xp_17_3 + xp_6_1
 + xp_5_1 <= 25.3650893136948
 r_65: + xp_20_1 + xp_19_2 + xp_14_1 + xp_10_1 + xp_7_1 + xp_2_1
 + xp_0_5 <= 27.3778920308483
 r_66: + xp_21_3 + xp_20_2 + xp_19_5 + xp_7_0 <= 27.3778920308483
 r_67: + xp_20_3 + xp_19_1 + xp_10_0 <= 27.3778920308483
 r_68: + xp_20_0 <= 27.3778920308483

Bounds
 0 <= xp_0_0 <= 27
 0 <= xp_0_1 <= 12
 0 <= xp_0_2 <= 3
 0 <= xp_0_3 <= 3
 0 <= xp_0_4 <= 6
 0 <= xp_0_5 <= 6
 0 <= xp_0_6 <= 3
 0 <= xp_1_0 <= 20.0134875
 0 <= xp_1_1 <= 14.0134875
 0 <= xp_2_0 <= 22.420872
 0 <= xp_2_1 <= 3.355218
 0 <= xp_2_2 <= 1.065654
 0 <= xp_2_3 <= 6.355218
 0 <= xp_2_4 <= 0.355218
 0 <= xp_3_0 <= 24
 0 <= xp_3_1 <= 6
 0 <= xp_4_0 <= 25.3224
 0 <= xp_5_0 <= 15.19344
 0 <= xp_5_1 <= 5.06448
 0 <= xp_5_2 <= 5.06448
 0 <= xp_6_0 <= 15.953112
 0 <= xp_6_1 <= 2.279016
 0 <= xp_6_2 <= 2.279016
 0 <= xp_6_3 <= 2.279016
 0 <= xp_7_0 <= 17.472456
 0 <= xp_7_1 <= 4.368114
 0 <= xp_8_0 <= 17.662374
 0 <= xp_8_1 <= 1.962486
 0 <= xp_9_0 <= 18.200475
 0 <= xp_10_0 <= 16.3804275
 0 <= xp_10_1 <= 1.8200475
 0 <= xp_11_0 <= 23.521692
 0 <= xp_11_1 <= 14.282538
 0 <= xp_11_2 <= 14.282538
 0 <= xp_11_3 <= 5.521692
 0 <= xp_12_0 <= 17.09262
 0 <= xp_13_0 <= 13.29426
 0 <= xp_13_1 <= 3.323565
 0 <= xp_14_0 <= 14.24385
 0 <= xp_14_1 <= 1.58265
 0 <= xp_15_0 <= 15.668235
 0 <= xp_16_0 <= 13.5316575
 0 <= xp_16_1 <= 1.5035175
 0 <= xp_17_0 <= 26.799534
 0 <= xp_17_1 <= 2.799534
 0 <= xp_17_2 <= 2.799534
 0 <= xp_17_3 <= 1.399767
 0 <= xp_17_4 <= 3
 0 <= xp_17_5 <= 5.799534
 0 <= xp_17_6 <= 1.399767
 0 <= xp_18_0 <= 20.419698
 0 <= xp_18_1 <= 13.839396
 0 <= xp_18_2 <= 5.419698
 0 <= xp_18_3 <= 1.209849
 0 <= xp_18_4 <= 1.209849
 0 <= xp_19_0 <= 27.4871085
 0 <= xp_19_1 <= 3.4871085
 0 <= xp_19_2 <= 3
 0 <= xp_19_3 <= 2.324739
 0 <= xp_19_4 <= 1.1623695
 0 <= xp_19_5 <= 3
 0 <= xp_19_6 <= 1.1623695
 0 <= xp_20_0 <= 28.083237
 0 <= xp_20_1 <= 4.332948
 0 <= xp_20_2 <= 4.083237
 0 <= xp_20_3 <= 4.332948
 0 <= xp_21_0 <= 25.5457275
 0 <= xp_21_1 <= 1.818291
 0 <= xp_21_2 <= 6.9091455
 0 <= xp_21_3 <= 0.9091455
 0 <= xp_21_4 <= 3.9091455
 0 <= xp_22_0 <= 25.501761
 0 <= xp_22_1 <= 1.501761
 0 <= xp_22_2 <= 1.501761
 0 <= xp_22_3 <= 8.2526415
 0 <= xp_22_4 <= 0.7508805
 0 <= xp_23_0 <= 21.003522
 0 <= xp_23_1 <= 9.003522
 0 <= xp_23_2 <= 3
 0 <= xp_23_3 <= 0.7508805
 0 <= xp_23_4 <= 3
 0 <= xp_23_5 <= 0.7508805

End
